
Gurobi 9.0.3 (mac64, Python) logging started Sat Oct 31 15:58:30 2020

Set parameter LogFile to value gurobi.log

Gurobi 9.0.3 (mac64, Python) logging started Sat Oct 31 15:58:59 2020

Set parameter LogFile to value gurobi.log

Gurobi 9.0.3 (mac64, Python) logging started Sat Oct 31 15:59:23 2020

Using license file /Users/kanavpetkar/gurobi.lic
Set parameter LogFile to value gurobi.log
Academic license - for non-commercial use only

Gurobi 9.0.3 (mac64, Python) logging started Sat Oct 31 15:59:58 2020

Using license file /Users/kanavpetkar/gurobi.lic
Set parameter LogFile to value gurobi.log
Academic license - for non-commercial use only
